NAME : n40w180.003.398.tour
COMMENT : Length = 398
COMMENT : Found by LKH [Keld Helsgaun] Tue Nov  7 19:39:17 2017
TYPE : TOUR
DIMENSION : 41
TOUR_SECTION
1
32
19
35
15
25
17
22
7
36
9
6
23
16
39
11
33
26
27
21
14
38
8
13
5
28
30
34
2
3
29
18
31
10
24
37
4
41
20
40
12
-1
EOF
